/*********************************************
 * OPL 12.6.0.0 Data
 * Author: Adrian Rodriguez Bazaga, Pau Rodriguez Esmerats
 * Creation Date: 06/12/2017 at 23:05:01
 *********************************************/

nNurses=308;
maxConsec=2;
maxPresence=7;
maxHours=5;
minHours=1;
hours=24;
demand= [53 56 80 82 56 80 82 60 57 35 4 8 4 14 7 10 6 8 3 6 50 80 33 71  ];
